casillas = array2d(1..9,1..9,[_,9,_,_,_,_,_,1,_,
                             8,_,4,_,2,_,3,_,7,
                             _,6,_,9,_,7,_,2,_,
                             _,_,5,_,3,_,1,_,_,
                             _,7,_,5,_,1,_,3,_,
                             _,_,3,_,9,_,8,_,_,
                             _,2,_,8,_,5,_,6,_,
                             1,_,7,_,6,_,4,_,9,
                             _,3,_,_,_,_,_,8,_])
